5253
184 228
294 35
451 229
226 279
78 33
339 70
64 463
384 10
170 173
245 446
90 50
236 461
424 443
222 111
101 241
97 84
173 90
140 274
196 371
31 245
438 417
166 300
56 9
52 454
287 129
473 199
112 269
169 3
285 190
221 4
152 399
7 471
30 284
337 58
170 117
197 35
253 270
3 157
391 264
145 248
162 352
128 302
301 354
52 183
99 500
170 189
396 346
81 299
275 74
453 445
482 452
38 36
498 71
50 407
44 150
488 408
359 135
154 454
361 295
108 443
6 163
164 347
122 272
377 75
292 303
97 237
295 5
388 334
249 231
255 468
18 3
419 393
250 366
312 309
8 361
103 427
2 117
180 224
60 425
102 149
441 478
209 422
289 171
411 213
314 122
187 143
259 386
9 349
421 394
39 245
492 189
155 418
121 76
187 252
492 251
184 140
146 9
325 460
232 344
446 269
